% File represents an instance of a Composite Structure problem to be solved by a CP framework
% Created on 2025-03-26 10:41:49.484
T = 52;
n = 36;
m = 60;
edges = [(1, 2),
(8, 7),
(13, 14),
(19, 20),
(25, 26),
(32, 31),
(2, 3),
(8, 9),
(14, 15),
(21, 20),
(27, 26),
(32, 33),
(4, 3),
(10, 9),
(15, 16),
(21, 22),
(28, 27),
(34, 33),
(5, 4),
(10, 11),
(17, 16),
(23, 22),
(28, 29),
(34, 35),
(5, 6),
(12, 11),
(18, 17),
(23, 24),
(29, 30),
(35, 36),
(1, 7),
(13, 7),
(13, 19),
(19, 25),
(25, 31),
(8, 2),
(8, 14),
(14, 20),
(20, 26),
(32, 26),
(9, 3),
(9, 15),
(21, 15),
(21, 27),
(27, 33),
(10, 4),
(10, 16),
(22, 16),
(28, 22),
(28, 34),
(5, 11),
(17, 11),
(23, 17),
(23, 29),
(29, 35),
(12, 6),
(18, 12),
(18, 24),
(24, 30),
(30, 36)];
counts = [|8, 14, 8, 22,
|6, 14, 6, 20,
|6, 12, 6, 18,
|6, 14, 6, 18,
|6, 14, 6, 20,
|6, 10, 6, 20,
|6, 14, 6, 22,
|6, 14, 6, 24,
|6, 12, 6, 22,
|6, 14, 6, 22,
|6, 10, 6, 20,
|8, 10, 8, 22,
|6, 16, 6, 22,
|6, 12, 6, 22,
|6, 10, 6, 22,
|6, 10, 6, 20,
|8, 10, 8, 22,
|8, 10, 8, 24,
|6, 10, 6, 22,
|6, 10, 6, 20,
|8, 10, 8, 22,
|8, 10, 8, 20,
|8, 12, 8, 22,
|8, 8, 8, 22,
|6, 8, 6, 20,
|6, 6, 6, 18,
|8, 8, 8, 18,
|8, 10, 8, 22,
|8, 8, 8, 22,
|8, 6, 8, 18,
|6, 8, 6, 18,
|6, 8, 6, 20,
|6, 8, 6, 18,
|8, 8, 8, 20,
|8, 6, 8, 20,
|6, 6, 6, 18|];
